
Gurobi 10.0.1 (linux64) logging started Sun Nov 26 15:45:10 2023

Set parameter LogFile to value "ArtificialInstance/ExperimentV2/S2T4K2/AdRo/gurobiSpRo48.txt"
Gurobi Optimizer version 10.0.1 build v10.0.1rc0 (linux64)

CPU model: AMD EPYC 7H12 64-Core Processor, instruction set [SSE2|AVX|AVX2]
Thread count: 128 physical cores, 128 logical processors, using up to 32 threads

Academic license 656792 - for non-commercial use only - registered to b.___@student.vu.nl
Optimize a model with 6812 rows, 6490 columns and 25083 nonzeros
Model fingerprint: 0xfe33679f
Variable types: 1 continuous, 6489 integer (6489 binary)
Coefficient statistics:
  Matrix range     [1e+00, 4e+01]
  Objective range  [1e+00, 2e+01]
  Bounds range     [1e+00, 1e+00]
  RHS range        [1e+00, 1e+00]
Presolve removed 3251 rows and 3024 columns
Presolve time: 0.07s
Presolved: 3561 rows, 3466 columns, 13524 nonzeros
Variable types: 1 continuous, 3465 integer (3465 binary)
Found heuristic solution: objective 74.3267573

Root relaxation: objective 7.082901e+01, 389 iterations, 0.01 seconds (0.00 work units)

    Nodes    |    Current Node    |     Objective Bounds      |     Work
 Expl Unexpl |  Obj  Depth IntInf | Incumbent    BestBd   Gap | It/Node Time

     0     0   70.82901    0    6   74.32676   70.82901  4.71%     -    0s
H    0     0                      70.8290132   70.82901  0.00%     -    0s
     0     0   70.82901    0    6   70.82901   70.82901  0.00%     -    0s

Explored 1 nodes (389 simplex iterations) in 0.13 seconds (0.08 work units)
Thread count was 32 (of 128 available processors)

Solution count 2: 70.829 74.3268 

Optimal solution found (tolerance 1.00e-04)
Best objective 7.082901320519e+01, best bound 7.082901320519e+01, gap 0.0000%
